100
100
100
99
99
98
97
97
97
96
96
96
95
93
91
90
87
87
86
86
84
83
82
81
81
81
80
79
79
77
77
76
76
75
74
72
72
72
71
70
70
70
69
69
68
68
67
67
67
66
66
66
65
65
65
64
64
62
60
59
57
57
57
57
55
55
55
55
53
53
52
52
52
50
50
50
49
49
48
47
47
45
45
45
44
43
42
39
39
39
38
38
38
37
35
35
34
32
32
31
30
30
